/*********************************************
 * OPL 12.10.0.0 Data
 * Author: Kinast
 * Creation date: Aug 17, 2021 at 11:47:41 AM
 *********************************************/

 nOrders = 50;
 nTasks = 600;

 nWorkgroups = 10;
 nWorkstations = 30;

 nCobots = 0;
 cobotTimeFactor = 0.7;

 workstations = {
 	< 0, "Workstation 0", 0, 0.76, 0.84, 1, 1 >,
 	< 1, "Workstation 1", 1, 1.1, 1.13, 1, 4 >,
 	< 2, "Workstation 2", 2, 1.17, 0.97, 1, 3 >,
 	< 3, "Workstation 3", 3, 1.17, 0.97, 1, 1 >,
 	< 4, "Workstation 4", 4, 0.79, 1.01, 1, 1 >,
 	< 5, "Workstation 5", 3, 1.03, 1.05, 1, 4 >,
 	< 6, "Workstation 6", 5, 1.07, 0.82, 1, 1 >,
 	< 7, "Workstation 7", 6, 1.13, 1.22, 1, 1 >,
 	< 8, "Workstation 8", 7, 1.17, 0.77, 1, 1 >,
 	< 9, "Workstation 9", 0, 0.79, 1.14, 1, 4 >,
 	< 10, "Workstation 10", 3, 1.23, 0.83, 1, 1 >,
 	< 11, "Workstation 11", 8, 1.06, 1.08, 1, 1 >,
 	< 12, "Workstation 12", 5, 1.01, 0.78, 1, 4 >,
 	< 13, "Workstation 13", 4, 1.15, 0.78, 1, 1 >,
 	< 14, "Workstation 14", 0, 1.21, 0.77, 1, 1 >,
 	< 15, "Workstation 15", 2, 1.21, 1, 1, 1 >,
 	< 16, "Workstation 16", 7, 0.77, 0.76, 1, 4 >,
 	< 17, "Workstation 17", 8, 1.14, 0.8, 1, 1 >,
 	< 18, "Workstation 18", 5, 1.03, 1.1, 1, 4 >,
 	< 19, "Workstation 19", 1, 0.94, 1.01, 1, 2 >,
 	< 20, "Workstation 20", 7, 1.04, 0.85, 1, 1 >,
 	< 21, "Workstation 21", 6, 1.15, 1.22, 1, 5 >,
 	< 22, "Workstation 22", 6, 0.95, 1.06, 1, 2 >,
 	< 23, "Workstation 23", 9, 0.94, 0.82, 1, 1 >,
 	< 24, "Workstation 24", 1, 1.12, 0.8, 1, 1 >,
 	< 25, "Workstation 25", 4, 0.84, 1.09, 1, 1 >,
 	< 26, "Workstation 26", 9, 1.04, 0.81, 1, 3 >,
 	< 27, "Workstation 27", 9, 1.06, 1.19, 1, 1 >,
 	< 28, "Workstation 28", 8, 1, 1.23, 1, 1 >,
 	< 29, "Workstation 29", 2, 0.96, 1.02, 1, 2 >
 };

 tasks = {
 	// order 0
 	< 0, 0, 9, 0, 81, 147, 9, -1 >,
 	< 1, 0, 3, 72, 78, 140, 1, 0 >,
 	< 2, 0, 9, 0, 72, 129, 0, 1 >,
 	< 3, 0, 3, 83, 0, 171, 4, 2 >,
 	< 4, 0, 4, 0, 0, 155, 7, 3 >,
 	< 5, 0, 8, 54, 0, 152, 2, 4 >,
 	< 6, 0, 7, 0, 63, 162, 6, 5 >,
 	< 7, 0, 7, 94, 0, 122, 5, 6 >,
 	< 8, 0, 9, 0, 92, 195, 8, 7 >,
 	< 9, 0, 1, 57, 0, 161, 3, 8 >,
 	< 10, 0, 9, 0, 68, 182, 9, 9 >,
 	< 11, 0, 5, 73, 0, 170, 1, 10 >,
 	// order 1
 	< 12, 1, 5, 0, 0, 115, 0, -1 >,
 	< 13, 1, 1, 0, 0, 190, 4, 12 >,
 	< 14, 1, 1, 55, 0, 185, 7, 13 >,
 	< 15, 1, 6, 65, 71, 125, 2, 14 >,
 	< 16, 1, 5, 0, 0, 195, 6, 15 >,
 	< 17, 1, 7, 54, 0, 124, 5, 16 >,
 	< 18, 1, 7, 0, 52, 172, 8, 17 >,
 	< 19, 1, 5, 61, 74, 186, 3, 18 >,
 	< 20, 1, 8, 0, 51, 142, 9, 19 >,
 	< 21, 1, 3, 0, 0, 131, 1, 20 >,
 	< 22, 1, 1, 0, 53, 136, 0, 21 >,
 	< 23, 1, 7, 38, 0, 172, 4, 22 >,
 	// order 2
 	< 24, 2, 5, 87, 47, 191, 7, -1 >,
 	< 25, 2, 3, 0, 57, 180, 2, 24 >,
 	< 26, 2, 1, 96, 66, 146, 6, 25 >,
 	< 27, 2, 2, 0, 56, 123, 5, 26 >,
 	< 28, 2, 9, 0, 0, 133, 8, 27 >,
 	< 29, 2, 3, 0, 32, 177, 3, 28 >,
 	< 30, 2, 7, 39, 0, 118, 9, 29 >,
 	< 31, 2, 10, 0, 58, 112, 1, 30 >,
 	< 32, 2, 3, 36, 98, 168, 0, 31 >,
 	< 33, 2, 10, 90, 0, 155, 4, 32 >,
 	< 34, 2, 1, 54, 0, 183, 7, 33 >,
 	< 35, 2, 8, 94, 95, 106, 2, 34 >,
 	// order 3
 	< 36, 3, 6, 42, 0, 150, 6, -1 >,
 	< 37, 3, 8, 70, 0, 152, 5, 36 >,
 	< 38, 3, 7, 0, 0, 137, 8, 37 >,
 	< 39, 3, 8, 47, 55, 176, 3, 38 >,
 	< 40, 3, 2, 45, 35, 180, 9, 39 >,
 	< 41, 3, 10, 0, 0, 170, 1, 40 >,
 	< 42, 3, 8, 44, 0, 128, 0, 41 >,
 	< 43, 3, 5, 0, 42, 117, 4, 42 >,
 	< 44, 3, 1, 0, 0, 102, 7, 43 >,
 	< 45, 3, 4, 43, 35, 119, 2, 44 >,
 	< 46, 3, 4, 0, 0, 116, 6, 45 >,
 	< 47, 3, 10, 59, 100, 170, 5, 46 >,
 	// order 4
 	< 48, 4, 8, 0, 0, 151, 8, -1 >,
 	< 49, 4, 9, 44, 36, 128, 3, 48 >,
 	< 50, 4, 3, 0, 0, 119, 9, 49 >,
 	< 51, 4, 8, 84, 0, 122, 1, 50 >,
 	< 52, 4, 6, 38, 0, 200, 0, 51 >,
 	< 53, 4, 4, 0, 32, 121, 4, 52 >,
 	< 54, 4, 5, 0, 93, 148, 7, 53 >,
 	< 55, 4, 4, 92, 45, 147, 2, 54 >,
 	< 56, 4, 4, 0, 86, 199, 6, 55 >,
 	< 57, 4, 10, 33, 0, 111, 5, 56 >,
 	< 58, 4, 1, 0, 0, 144, 8, 57 >,
 	< 59, 4, 1, 94, 0, 112, 3, 58 >,
 	// order 5
 	< 60, 5, 4, 0, 0, 178, 9, -1 >,
 	< 61, 5, 6, 0, 0, 146, 1, 60 >,
 	< 62, 5, 10, 89, 48, 197, 0, 61 >,
 	< 63, 5, 8, 0, 0, 137, 4, 62 >,
 	< 64, 5, 5, 0, 0, 168, 7, 63 >,
 	< 65, 5, 5, 37, 0, 185, 2, 64 >,
 	< 66, 5, 4, 0, 0, 170, 6, 65 >,
 	< 67, 5, 10, 0, 0, 188, 5, 66 >,
 	< 68, 5, 2, 0, 0, 115, 8, 67 >,
 	< 69, 5, 6, 65, 46, 163, 3, 68 >,
 	< 70, 5, 2, 48, 44, 170, 9, 69 >,
 	< 71, 5, 4, 0, 0, 169, 1, 70 >,
 	// order 6
 	< 72, 6, 7, 72, 37, 137, 0, -1 >,
 	< 73, 6, 2, 72, 0, 188, 4, 72 >,
 	< 74, 6, 5, 36, 36, 197, 7, 73 >,
 	< 75, 6, 3, 65, 93, 125, 2, 74 >,
 	< 76, 6, 10, 81, 82, 125, 6, 75 >,
 	< 77, 6, 7, 0, 37, 170, 5, 76 >,
 	< 78, 6, 3, 0, 83, 104, 8, 77 >,
 	< 79, 6, 2, 0, 0, 118, 3, 78 >,
 	< 80, 6, 2, 79, 42, 200, 9, 79 >,
 	< 81, 6, 2, 36, 0, 190, 1, 80 >,
 	< 82, 6, 8, 73, 82, 139, 0, 81 >,
 	< 83, 6, 8, 0, 94, 173, 4, 82 >,
 	// order 7
 	< 84, 7, 4, 0, 0, 187, 7, -1 >,
 	< 85, 7, 4, 45, 0, 173, 2, 84 >,
 	< 86, 7, 1, 0, 39, 118, 6, 85 >,
 	< 87, 7, 3, 59, 40, 197, 5, 86 >,
 	< 88, 7, 3, 0, 0, 195, 8, 87 >,
 	< 89, 7, 5, 93, 0, 166, 3, 88 >,
 	< 90, 7, 5, 0, 49, 139, 9, 89 >,
 	< 91, 7, 5, 0, 51, 163, 1, 90 >,
 	< 92, 7, 6, 95, 87, 131, 0, 91 >,
 	< 93, 7, 1, 0, 0, 149, 4, 92 >,
 	< 94, 7, 6, 0, 72, 195, 7, 93 >,
 	< 95, 7, 5, 0, 0, 122, 2, 94 >,
 	// order 8
 	< 96, 8, 5, 75, 0, 151, 6, -1 >,
 	< 97, 8, 4, 0, 60, 175, 5, 96 >,
 	< 98, 8, 8, 38, 0, 112, 8, 97 >,
 	< 99, 8, 6, 0, 0, 130, 3, 98 >,
 	< 100, 8, 5, 56, 0, 144, 9, 99 >,
 	< 101, 8, 6, 0, 0, 142, 1, 100 >,
 	< 102, 8, 2, 0, 42, 119, 0, 101 >,
 	< 103, 8, 6, 94, 52, 142, 4, 102 >,
 	< 104, 8, 5, 74, 82, 171, 7, 103 >,
 	< 105, 8, 6, 0, 0, 150, 2, 104 >,
 	< 106, 8, 1, 0, 0, 197, 6, 105 >,
 	< 107, 8, 8, 33, 44, 167, 5, 106 >,
 	// order 9
 	< 108, 9, 4, 0, 67, 110, 8, -1 >,
 	< 109, 9, 8, 81, 47, 120, 3, 108 >,
 	< 110, 9, 7, 0, 90, 165, 9, 109 >,
 	< 111, 9, 1, 61, 97, 168, 1, 110 >,
 	< 112, 9, 8, 41, 92, 121, 0, 111 >,
 	< 113, 9, 5, 88, 0, 172, 4, 112 >,
 	< 114, 9, 7, 0, 0, 112, 7, 113 >,
 	< 115, 9, 2, 97, 0, 186, 2, 114 >,
 	< 116, 9, 9, 0, 0, 134, 6, 115 >,
 	< 117, 9, 4, 0, 0, 109, 5, 116 >,
 	< 118, 9, 6, 0, 0, 148, 8, 117 >,
 	< 119, 9, 8, 64, 55, 128, 3, 118 >,
 	// order 10
 	< 120, 10, 10, 0, 0, 170, 9, -1 >,
 	< 121, 10, 5, 97, 0, 192, 1, 120 >,
 	< 122, 10, 7, 94, 0, 150, 0, 121 >,
 	< 123, 10, 6, 0, 85, 162, 4, 122 >,
 	< 124, 10, 9, 0, 37, 136, 7, 123 >,
 	< 125, 10, 4, 51, 0, 193, 2, 124 >,
 	< 126, 10, 4, 58, 47, 104, 6, 125 >,
 	< 127, 10, 8, 38, 63, 139, 5, 126 >,
 	< 128, 10, 9, 0, 0, 157, 8, 127 >,
 	< 129, 10, 7, 0, 92, 162, 3, 128 >,
 	< 130, 10, 9, 37, 88, 114, 9, 129 >,
 	< 131, 10, 3, 54, 67, 171, 1, 130 >,
 	// order 11
 	< 132, 11, 6, 99, 0, 117, 0, -1 >,
 	< 133, 11, 10, 0, 66, 173, 4, 132 >,
 	< 134, 11, 2, 0, 0, 158, 7, 133 >,
 	< 135, 11, 6, 86, 58, 171, 2, 134 >,
 	< 136, 11, 4, 0, 0, 200, 6, 135 >,
 	< 137, 11, 4, 0, 0, 190, 5, 136 >,
 	< 138, 11, 6, 85, 97, 168, 8, 137 >,
 	< 139, 11, 4, 62, 0, 149, 3, 138 >,
 	< 140, 11, 2, 0, 0, 110, 9, 139 >,
 	< 141, 11, 2, 97, 0, 124, 1, 140 >,
 	< 142, 11, 6, 38, 67, 182, 0, 141 >,
 	< 143, 11, 4, 0, 0, 199, 4, 142 >,
 	// order 12
 	< 144, 12, 9, 67, 53, 186, 7, -1 >,
 	< 145, 12, 10, 44, 48, 197, 2, 144 >,
 	< 146, 12, 3, 0, 0, 125, 6, 145 >,
 	< 147, 12, 6, 0, 0, 130, 5, 146 >,
 	< 148, 12, 5, 0, 0, 119, 8, 147 >,
 	< 149, 12, 4, 68, 0, 114, 3, 148 >,
 	< 150, 12, 2, 0, 0, 140, 9, 149 >,
 	< 151, 12, 5, 66, 69, 173, 1, 150 >,
 	< 152, 12, 3, 0, 83, 137, 0, 151 >,
 	< 153, 12, 10, 56, 62, 127, 4, 152 >,
 	< 154, 12, 3, 0, 0, 189, 7, 153 >,
 	< 155, 12, 5, 0, 53, 126, 2, 154 >,
 	// order 13
 	< 156, 13, 5, 0, 57, 106, 6, -1 >,
 	< 157, 13, 5, 0, 83, 172, 5, 156 >,
 	< 158, 13, 7, 32, 98, 111, 8, 157 >,
 	< 159, 13, 6, 79, 0, 168, 3, 158 >,
 	< 160, 13, 6, 77, 94, 127, 9, 159 >,
 	< 161, 13, 1, 99, 0, 160, 1, 160 >,
 	< 162, 13, 3, 0, 0, 194, 0, 161 >,
 	< 163, 13, 4, 79, 86, 106, 4, 162 >,
 	< 164, 13, 7, 0, 75, 119, 7, 163 >,
 	< 165, 13, 5, 0, 98, 188, 2, 164 >,
 	< 166, 13, 3, 0, 92, 156, 6, 165 >,
 	< 167, 13, 2, 41, 0, 113, 5, 166 >,
 	// order 14
 	< 168, 14, 1, 69, 0, 135, 8, -1 >,
 	< 169, 14, 8, 0, 0, 175, 3, 168 >,
 	< 170, 14, 10, 82, 0, 162, 9, 169 >,
 	< 171, 14, 10, 92, 0, 172, 1, 170 >,
 	< 172, 14, 9, 82, 0, 128, 0, 171 >,
 	< 173, 14, 4, 0, 60, 138, 4, 172 >,
 	< 174, 14, 3, 0, 86, 167, 7, 173 >,
 	< 175, 14, 1, 66, 50, 145, 2, 174 >,
 	< 176, 14, 3, 0, 0, 102, 6, 175 >,
 	< 177, 14, 10, 0, 98, 196, 5, 176 >,
 	< 178, 14, 9, 0, 0, 144, 8, 177 >,
 	< 179, 14, 4, 0, 0, 178, 3, 178 >,
 	// order 15
 	< 180, 15, 3, 43, 0, 184, 9, -1 >,
 	< 181, 15, 7, 93, 0, 194, 1, 180 >,
 	< 182, 15, 8, 36, 0, 118, 0, 181 >,
 	< 183, 15, 10, 0, 96, 173, 4, 182 >,
 	< 184, 15, 10, 0, 61, 176, 7, 183 >,
 	< 185, 15, 5, 95, 36, 145, 2, 184 >,
 	< 186, 15, 6, 34, 0, 100, 6, 185 >,
 	< 187, 15, 1, 0, 0, 139, 5, 186 >,
 	< 188, 15, 5, 0, 68, 198, 8, 187 >,
 	< 189, 15, 4, 78, 0, 135, 3, 188 >,
 	< 190, 15, 2, 46, 86, 197, 9, 189 >,
 	< 191, 15, 9, 49, 0, 114, 1, 190 >,
 	// order 16
 	< 192, 16, 7, 0, 0, 149, 0, -1 >,
 	< 193, 16, 3, 32, 42, 186, 4, 192 >,
 	< 194, 16, 9, 0, 47, 186, 7, 193 >,
 	< 195, 16, 7, 0, 0, 140, 2, 194 >,
 	< 196, 16, 7, 88, 0, 192, 6, 195 >,
 	< 197, 16, 7, 0, 0, 126, 5, 196 >,
 	< 198, 16, 3, 0, 0, 115, 8, 197 >,
 	< 199, 16, 1, 0, 100, 136, 3, 198 >,
 	< 200, 16, 1, 62, 84, 192, 9, 199 >,
 	< 201, 16, 5, 0, 79, 133, 1, 200 >,
 	< 202, 16, 10, 0, 0, 127, 0, 201 >,
 	< 203, 16, 9, 52, 81, 135, 4, 202 >,
 	// order 17
 	< 204, 17, 8, 83, 74, 198, 7, -1 >,
 	< 205, 17, 6, 44, 0, 139, 2, 204 >,
 	< 206, 17, 9, 0, 0, 174, 6, 205 >,
 	< 207, 17, 10, 33, 94, 159, 5, 206 >,
 	< 208, 17, 2, 87, 0, 100, 8, 207 >,
 	< 209, 17, 8, 0, 0, 129, 3, 208 >,
 	< 210, 17, 10, 0, 0, 100, 9, 209 >,
 	< 211, 17, 3, 79, 0, 113, 1, 210 >,
 	< 212, 17, 10, 75, 0, 141, 0, 211 >,
 	< 213, 17, 10, 0, 40, 154, 4, 212 >,
 	< 214, 17, 10, 48, 87, 177, 7, 213 >,
 	< 215, 17, 7, 0, 60, 163, 2, 214 >,
 	// order 18
 	< 216, 18, 3, 0, 0, 192, 6, -1 >,
 	< 217, 18, 4, 0, 52, 104, 5, 216 >,
 	< 218, 18, 10, 0, 95, 197, 8, 217 >,
 	< 219, 18, 10, 91, 0, 187, 3, 218 >,
 	< 220, 18, 3, 0, 67, 137, 9, 219 >,
 	< 221, 18, 4, 43, 0, 124, 1, 220 >,
 	< 222, 18, 7, 0, 74, 151, 0, 221 >,
 	< 223, 18, 8, 47, 0, 105, 4, 222 >,
 	< 224, 18, 7, 0, 37, 159, 7, 223 >,
 	< 225, 18, 7, 0, 0, 191, 2, 224 >,
 	< 226, 18, 9, 83, 0, 107, 6, 225 >,
 	< 227, 18, 2, 72, 31, 155, 5, 226 >,
 	// order 19
 	< 228, 19, 7, 0, 0, 107, 8, -1 >,
 	< 229, 19, 4, 64, 0, 141, 3, 228 >,
 	< 230, 19, 3, 0, 62, 112, 9, 229 >,
 	< 231, 19, 3, 57, 96, 170, 1, 230 >,
 	< 232, 19, 2, 0, 0, 156, 0, 231 >,
 	< 233, 19, 5, 47, 62, 192, 4, 232 >,
 	< 234, 19, 2, 45, 56, 149, 7, 233 >,
 	< 235, 19, 3, 79, 0, 118, 2, 234 >,
 	< 236, 19, 2, 77, 0, 113, 6, 235 >,
 	< 237, 19, 3, 0, 55, 121, 5, 236 >,
 	< 238, 19, 1, 53, 0, 136, 8, 237 >,
 	< 239, 19, 9, 76, 50, 181, 3, 238 >,
 	// order 20
 	< 240, 20, 7, 37, 63, 161, 9, -1 >,
 	< 241, 20, 8, 66, 87, 188, 1, 240 >,
 	< 242, 20, 6, 0, 0, 161, 0, 241 >,
 	< 243, 20, 1, 0, 43, 186, 4, 242 >,
 	< 244, 20, 1, 33, 93, 145, 7, 243 >,
 	< 245, 20, 1, 79, 43, 177, 2, 244 >,
 	< 246, 20, 4, 0, 0, 157, 6, 245 >,
 	< 247, 20, 7, 78, 0, 106, 5, 246 >,
 	< 248, 20, 9, 0, 0, 111, 8, 247 >,
 	< 249, 20, 9, 0, 46, 152, 3, 248 >,
 	< 250, 20, 4, 37, 68, 180, 9, 249 >,
 	< 251, 20, 1, 0, 41, 175, 1, 250 >,
 	// order 21
 	< 252, 21, 2, 92, 37, 113, 0, -1 >,
 	< 253, 21, 6, 32, 0, 163, 4, 252 >,
 	< 254, 21, 10, 86, 0, 130, 7, 253 >,
 	< 255, 21, 8, 35, 0, 104, 2, 254 >,
 	< 256, 21, 5, 0, 48, 167, 6, 255 >,
 	< 257, 21, 5, 74, 66, 107, 5, 256 >,
 	< 258, 21, 6, 97, 0, 152, 8, 257 >,
 	< 259, 21, 7, 0, 86, 200, 3, 258 >,
 	< 260, 21, 2, 0, 31, 121, 9, 259 >,
 	< 261, 21, 2, 0, 0, 127, 1, 260 >,
 	< 262, 21, 7, 34, 80, 165, 0, 261 >,
 	< 263, 21, 4, 0, 0, 172, 4, 262 >,
 	// order 22
 	< 264, 22, 7, 0, 91, 155, 7, -1 >,
 	< 265, 22, 4, 0, 44, 178, 2, 264 >,
 	< 266, 22, 2, 0, 0, 131, 6, 265 >,
 	< 267, 22, 1, 0, 0, 179, 5, 266 >,
 	< 268, 22, 3, 0, 0, 163, 8, 267 >,
 	< 269, 22, 2, 0, 70, 147, 3, 268 >,
 	< 270, 22, 9, 0, 0, 117, 9, 269 >,
 	< 271, 22, 3, 98, 0, 166, 1, 270 >,
 	< 272, 22, 7, 0, 0, 165, 0, 271 >,
 	< 273, 22, 9, 0, 0, 172, 4, 272 >,
 	< 274, 22, 2, 0, 0, 175, 7, 273 >,
 	< 275, 22, 7, 0, 69, 111, 2, 274 >,
 	// order 23
 	< 276, 23, 10, 0, 0, 120, 6, -1 >,
 	< 277, 23, 3, 0, 93, 150, 5, 276 >,
 	< 278, 23, 7, 72, 96, 143, 8, 277 >,
 	< 279, 23, 2, 0, 83, 158, 3, 278 >,
 	< 280, 23, 6, 96, 59, 112, 9, 279 >,
 	< 281, 23, 7, 0, 43, 175, 1, 280 >,
 	< 282, 23, 8, 40, 65, 114, 0, 281 >,
 	< 283, 23, 5, 0, 0, 122, 4, 282 >,
 	< 284, 23, 8, 0, 51, 111, 7, 283 >,
 	< 285, 23, 3, 0, 72, 125, 2, 284 >,
 	< 286, 23, 10, 99, 58, 152, 6, 285 >,
 	< 287, 23, 5, 41, 0, 152, 5, 286 >,
 	// order 24
 	< 288, 24, 2, 0, 31, 199, 8, -1 >,
 	< 289, 24, 8, 0, 30, 195, 3, 288 >,
 	< 290, 24, 2, 0, 0, 185, 9, 289 >,
 	< 291, 24, 3, 0, 0, 130, 1, 290 >,
 	< 292, 24, 9, 0, 39, 195, 0, 291 >,
 	< 293, 24, 8, 75, 43, 198, 4, 292 >,
 	< 294, 24, 7, 47, 79, 158, 7, 293 >,
 	< 295, 24, 1, 49, 0, 153, 2, 294 >,
 	< 296, 24, 9, 71, 0, 183, 6, 295 >,
 	< 297, 24, 4, 77, 0, 128, 5, 296 >,
 	< 298, 24, 3, 0, 0, 189, 8, 297 >,
 	< 299, 24, 8, 0, 0, 108, 3, 298 >,
 	// order 25
 	< 300, 25, 2, 0, 0, 116, 9, -1 >,
 	< 301, 25, 10, 0, 0, 189, 1, 300 >,
 	< 302, 25, 6, 49, 0, 139, 0, 301 >,
 	< 303, 25, 10, 0, 0, 155, 4, 302 >,
 	< 304, 25, 1, 75, 67, 103, 7, 303 >,
 	< 305, 25, 10, 0, 58, 118, 2, 304 >,
 	< 306, 25, 10, 0, 67, 169, 6, 305 >,
 	< 307, 25, 8, 0, 61, 172, 5, 306 >,
 	< 308, 25, 8, 0, 0, 195, 8, 307 >,
 	< 309, 25, 9, 58, 93, 130, 3, 308 >,
 	< 310, 25, 4, 54, 65, 173, 9, 309 >,
 	< 311, 25, 2, 52, 0, 114, 1, 310 >,
 	// order 26
 	< 312, 26, 3, 36, 64, 170, 0, -1 >,
 	< 313, 26, 8, 0, 87, 139, 4, 312 >,
 	< 314, 26, 10, 47, 0, 161, 7, 313 >,
 	< 315, 26, 1, 34, 32, 180, 2, 314 >,
 	< 316, 26, 2, 30, 47, 103, 6, 315 >,
 	< 317, 26, 10, 69, 0, 131, 5, 316 >,
 	< 318, 26, 6, 51, 30, 137, 8, 317 >,
 	< 319, 26, 3, 64, 0, 149, 3, 318 >,
 	< 320, 26, 10, 0, 63, 120, 9, 319 >,
 	< 321, 26, 2, 0, 47, 156, 1, 320 >,
 	< 322, 26, 2, 0, 45, 192, 0, 321 >,
 	< 323, 26, 8, 0, 68, 200, 4, 322 >,
 	// order 27
 	< 324, 27, 3, 72, 0, 172, 7, -1 >,
 	< 325, 27, 10, 30, 0, 181, 2, 324 >,
 	< 326, 27, 10, 66, 97, 198, 6, 325 >,
 	< 327, 27, 2, 89, 66, 164, 5, 326 >,
 	< 328, 27, 3, 63, 0, 148, 8, 327 >,
 	< 329, 27, 8, 0, 88, 196, 3, 328 >,
 	< 330, 27, 10, 0, 0, 100, 9, 329 >,
 	< 331, 27, 5, 0, 44, 145, 1, 330 >,
 	< 332, 27, 2, 61, 69, 196, 0, 331 >,
 	< 333, 27, 3, 0, 70, 166, 4, 332 >,
 	< 334, 27, 9, 64, 78, 185, 7, 333 >,
 	< 335, 27, 8, 66, 94, 170, 2, 334 >,
 	// order 28
 	< 336, 28, 10, 73, 0, 136, 6, -1 >,
 	< 337, 28, 10, 96, 0, 163, 5, 336 >,
 	< 338, 28, 4, 0, 0, 180, 8, 337 >,
 	< 339, 28, 2, 37, 0, 146, 3, 338 >,
 	< 340, 28, 2, 0, 0, 108, 9, 339 >,
 	< 341, 28, 3, 75, 0, 160, 1, 340 >,
 	< 342, 28, 5, 0, 65, 120, 0, 341 >,
 	< 343, 28, 10, 0, 96, 173, 4, 342 >,
 	< 344, 28, 9, 0, 0, 164, 7, 343 >,
 	< 345, 28, 7, 0, 0, 109, 2, 344 >,
 	< 346, 28, 7, 82, 68, 123, 6, 345 >,
 	< 347, 28, 5, 77, 91, 135, 5, 346 >,
 	// order 29
 	< 348, 29, 5, 75, 62, 194, 8, -1 >,
 	< 349, 29, 10, 42, 0, 134, 3, 348 >,
 	< 350, 29, 5, 57, 0, 115, 9, 349 >,
 	< 351, 29, 8, 0, 89, 196, 1, 350 >,
 	< 352, 29, 8, 0, 0, 186, 0, 351 >,
 	< 353, 29, 7, 63, 0, 143, 4, 352 >,
 	< 354, 29, 3, 89, 51, 113, 7, 353 >,
 	< 355, 29, 7, 0, 0, 169, 2, 354 >,
 	< 356, 29, 4, 0, 68, 155, 6, 355 >,
 	< 357, 29, 4, 41, 54, 104, 5, 356 >,
 	< 358, 29, 3, 0, 0, 140, 8, 357 >,
 	< 359, 29, 8, 45, 0, 186, 3, 358 >,
 	// order 30
 	< 360, 30, 4, 0, 83, 180, 9, -1 >,
 	< 361, 30, 8, 57, 0, 129, 1, 360 >,
 	< 362, 30, 5, 0, 0, 185, 0, 361 >,
 	< 363, 30, 6, 86, 0, 188, 4, 362 >,
 	< 364, 30, 6, 57, 77, 139, 7, 363 >,
 	< 365, 30, 10, 0, 43, 159, 2, 364 >,
 	< 366, 30, 5, 0, 0, 131, 6, 365 >,
 	< 367, 30, 4, 66, 0, 175, 5, 366 >,
 	< 368, 30, 9, 65, 0, 152, 8, 367 >,
 	< 369, 30, 9, 35, 0, 149, 3, 368 >,
 	< 370, 30, 9, 42, 0, 155, 9, 369 >,
 	< 371, 30, 2, 86, 0, 136, 1, 370 >,
 	// order 31
 	< 372, 31, 9, 0, 44, 149, 0, -1 >,
 	< 373, 31, 9, 0, 93, 154, 4, 372 >,
 	< 374, 31, 7, 0, 82, 104, 7, 373 >,
 	< 375, 31, 8, 0, 0, 114, 2, 374 >,
 	< 376, 31, 9, 93, 52, 133, 6, 375 >,
 	< 377, 31, 7, 0, 0, 186, 5, 376 >,
 	< 378, 31, 2, 0, 0, 130, 8, 377 >,
 	< 379, 31, 9, 64, 0, 130, 3, 378 >,
 	< 380, 31, 6, 87, 43, 189, 9, 379 >,
 	< 381, 31, 9, 49, 0, 129, 1, 380 >,
 	< 382, 31, 8, 78, 58, 175, 0, 381 >,
 	< 383, 31, 10, 0, 0, 188, 4, 382 >,
 	// order 32
 	< 384, 32, 9, 95, 81, 123, 7, -1 >,
 	< 385, 32, 7, 88, 69, 174, 2, 384 >,
 	< 386, 32, 10, 62, 77, 171, 6, 385 >,
 	< 387, 32, 1, 0, 58, 186, 5, 386 >,
 	< 388, 32, 9, 0, 0, 162, 8, 387 >,
 	< 389, 32, 5, 34, 0, 104, 3, 388 >,
 	< 390, 32, 6, 0, 39, 189, 9, 389 >,
 	< 391, 32, 10, 0, 46, 110, 1, 390 >,
 	< 392, 32, 5, 82, 0, 104, 0, 391 >,
 	< 393, 32, 10, 0, 0, 107, 4, 392 >,
 	< 394, 32, 3, 0, 56, 141, 7, 393 >,
 	< 395, 32, 7, 0, 66, 161, 2, 394 >,
 	// order 33
 	< 396, 33, 2, 84, 66, 116, 6, -1 >,
 	< 397, 33, 5, 52, 0, 174, 5, 396 >,
 	< 398, 33, 3, 0, 0, 140, 8, 397 >,
 	< 399, 33, 10, 0, 0, 200, 3, 398 >,
 	< 400, 33, 2, 44, 0, 199, 9, 399 >,
 	< 401, 33, 9, 75, 0, 138, 1, 400 >,
 	< 402, 33, 5, 100, 33, 103, 0, 401 >,
 	< 403, 33, 3, 89, 0, 191, 4, 402 >,
 	< 404, 33, 6, 0, 51, 133, 7, 403 >,
 	< 405, 33, 10, 0, 98, 145, 2, 404 >,
 	< 406, 33, 5, 0, 54, 197, 6, 405 >,
 	< 407, 33, 10, 0, 99, 187, 5, 406 >,
 	// order 34
 	< 408, 34, 6, 0, 91, 133, 8, -1 >,
 	< 409, 34, 8, 0, 0, 123, 3, 408 >,
 	< 410, 34, 2, 0, 0, 185, 9, 409 >,
 	< 411, 34, 1, 70, 0, 119, 1, 410 >,
 	< 412, 34, 7, 73, 36, 193, 0, 411 >,
 	< 413, 34, 1, 33, 35, 104, 4, 412 >,
 	< 414, 34, 10, 90, 0, 138, 7, 413 >,
 	< 415, 34, 2, 30, 71, 165, 2, 414 >,
 	< 416, 34, 7, 0, 42, 104, 6, 415 >,
 	< 417, 34, 2, 82, 0, 165, 5, 416 >,
 	< 418, 34, 2, 0, 0, 125, 8, 417 >,
 	< 419, 34, 6, 0, 91, 157, 3, 418 >,
 	// order 35
 	< 420, 35, 7, 48, 0, 122, 9, -1 >,
 	< 421, 35, 4, 63, 60, 104, 1, 420 >,
 	< 422, 35, 4, 0, 0, 120, 0, 421 >,
 	< 423, 35, 10, 48, 98, 157, 4, 422 >,
 	< 424, 35, 2, 78, 0, 175, 7, 423 >,
 	< 425, 35, 8, 38, 90, 193, 2, 424 >,
 	< 426, 35, 2, 0, 97, 145, 6, 425 >,
 	< 427, 35, 3, 86, 0, 171, 5, 426 >,
 	< 428, 35, 2, 0, 0, 131, 8, 427 >,
 	< 429, 35, 10, 0, 53, 106, 3, 428 >,
 	< 430, 35, 1, 94, 0, 150, 9, 429 >,
 	< 431, 35, 9, 85, 0, 161, 1, 430 >,
 	// order 36
 	< 432, 36, 9, 0, 71, 112, 0, -1 >,
 	< 433, 36, 2, 43, 0, 147, 4, 432 >,
 	< 434, 36, 3, 97, 0, 187, 7, 433 >,
 	< 435, 36, 1, 54, 0, 181, 2, 434 >,
 	< 436, 36, 8, 85, 86, 106, 6, 435 >,
 	< 437, 36, 3, 0, 0, 110, 5, 436 >,
 	< 438, 36, 9, 0, 0, 119, 8, 437 >,
 	< 439, 36, 7, 0, 0, 172, 3, 438 >,
 	< 440, 36, 3, 0, 0, 187, 9, 439 >,
 	< 441, 36, 7, 88, 0, 192, 1, 440 >,
 	< 442, 36, 5, 0, 0, 129, 0, 441 >,
 	< 443, 36, 3, 77, 100, 158, 4, 442 >,
 	// order 37
 	< 444, 37, 2, 34, 60, 181, 7, -1 >,
 	< 445, 37, 2, 83, 83, 180, 2, 444 >,
 	< 446, 37, 6, 89, 0, 197, 6, 445 >,
 	< 447, 37, 7, 40, 94, 139, 5, 446 >,
 	< 448, 37, 2, 48, 87, 165, 8, 447 >,
 	< 449, 37, 8, 0, 0, 168, 3, 448 >,
 	< 450, 37, 8, 0, 41, 116, 9, 449 >,
 	< 451, 37, 7, 0, 49, 107, 1, 450 >,
 	< 452, 37, 9, 0, 73, 159, 0, 451 >,
 	< 453, 37, 5, 0, 99, 105, 4, 452 >,
 	< 454, 37, 9, 48, 0, 191, 7, 453 >,
 	< 455, 37, 2, 0, 54, 195, 2, 454 >,
 	// order 38
 	< 456, 38, 10, 0, 0, 112, 6, -1 >,
 	< 457, 38, 8, 94, 87, 200, 5, 456 >,
 	< 458, 38, 8, 75, 67, 200, 8, 457 >,
 	< 459, 38, 2, 55, 0, 154, 3, 458 >,
 	< 460, 38, 1, 0, 0, 183, 9, 459 >,
 	< 461, 38, 2, 67, 0, 101, 1, 460 >,
 	< 462, 38, 6, 0, 0, 133, 0, 461 >,
 	< 463, 38, 2, 79, 90, 180, 4, 462 >,
 	< 464, 38, 6, 0, 99, 126, 7, 463 >,
 	< 465, 38, 2, 0, 0, 188, 2, 464 >,
 	< 466, 38, 10, 66, 100, 141, 6, 465 >,
 	< 467, 38, 10, 45, 0, 165, 5, 466 >,
 	// order 39
 	< 468, 39, 1, 0, 86, 147, 8, -1 >,
 	< 469, 39, 6, 0, 0, 174, 3, 468 >,
 	< 470, 39, 8, 0, 86, 156, 9, 469 >,
 	< 471, 39, 8, 0, 0, 152, 1, 470 >,
 	< 472, 39, 10, 35, 0, 164, 0, 471 >,
 	< 473, 39, 4, 0, 0, 170, 4, 472 >,
 	< 474, 39, 2, 43, 0, 148, 7, 473 >,
 	< 475, 39, 3, 0, 41, 145, 2, 474 >,
 	< 476, 39, 2, 78, 80, 169, 6, 475 >,
 	< 477, 39, 2, 50, 97, 120, 5, 476 >,
 	< 478, 39, 1, 32, 0, 166, 8, 477 >,
 	< 479, 39, 6, 82, 0, 175, 3, 478 >,
 	// order 40
 	< 480, 40, 5, 52, 0, 154, 9, -1 >,
 	< 481, 40, 5, 63, 84, 163, 1, 480 >,
 	< 482, 40, 10, 30, 0, 192, 0, 481 >,
 	< 483, 40, 4, 63, 83, 130, 4, 482 >,
 	< 484, 40, 8, 93, 0, 122, 7, 483 >,
 	< 485, 40, 3, 75, 0, 142, 2, 484 >,
 	< 486, 40, 1, 0, 0, 180, 6, 485 >,
 	< 487, 40, 4, 0, 0, 174, 5, 486 >,
 	< 488, 40, 9, 38, 0, 158, 8, 487 >,
 	< 489, 40, 1, 32, 82, 119, 3, 488 >,
 	< 490, 40, 10, 0, 100, 115, 9, 489 >,
 	< 491, 40, 2, 0, 40, 122, 1, 490 >,
 	// order 41
 	< 492, 41, 6, 97, 44, 186, 0, -1 >,
 	< 493, 41, 7, 65, 34, 152, 4, 492 >,
 	< 494, 41, 8, 96, 0, 157, 7, 493 >,
 	< 495, 41, 4, 73, 0, 129, 2, 494 >,
 	< 496, 41, 9, 0, 0, 114, 6, 495 >,
 	< 497, 41, 5, 0, 76, 103, 5, 496 >,
 	< 498, 41, 9, 0, 46, 191, 8, 497 >,
 	< 499, 41, 2, 56, 0, 118, 3, 498 >,
 	< 500, 41, 1, 0, 0, 113, 9, 499 >,
 	< 501, 41, 5, 83, 0, 198, 1, 500 >,
 	< 502, 41, 6, 80, 32, 128, 0, 501 >,
 	< 503, 41, 2, 61, 0, 144, 4, 502 >,
 	// order 42
 	< 504, 42, 3, 0, 65, 125, 7, -1 >,
 	< 505, 42, 6, 0, 32, 200, 2, 504 >,
 	< 506, 42, 1, 0, 60, 109, 6, 505 >,
 	< 507, 42, 9, 52, 72, 167, 5, 506 >,
 	< 508, 42, 4, 36, 0, 109, 8, 507 >,
 	< 509, 42, 5, 0, 86, 168, 3, 508 >,
 	< 510, 42, 2, 0, 98, 105, 9, 509 >,
 	< 511, 42, 7, 92, 53, 108, 1, 510 >,
 	< 512, 42, 1, 70, 40, 110, 0, 511 >,
 	< 513, 42, 10, 0, 43, 171, 4, 512 >,
 	< 514, 42, 5, 92, 0, 175, 7, 513 >,
 	< 515, 42, 5, 0, 0, 174, 2, 514 >,
 	// order 43
 	< 516, 43, 8, 0, 0, 188, 6, -1 >,
 	< 517, 43, 7, 62, 0, 123, 5, 516 >,
 	< 518, 43, 9, 0, 49, 158, 8, 517 >,
 	< 519, 43, 4, 66, 0, 196, 3, 518 >,
 	< 520, 43, 4, 67, 0, 149, 9, 519 >,
 	< 521, 43, 5, 31, 0, 197, 1, 520 >,
 	< 522, 43, 9, 0, 93, 159, 0, 521 >,
 	< 523, 43, 4, 76, 49, 137, 4, 522 >,
 	< 524, 43, 7, 44, 82, 191, 7, 523 >,
 	< 525, 43, 2, 0, 39, 123, 2, 524 >,
 	< 526, 43, 4, 0, 44, 118, 6, 525 >,
 	< 527, 43, 10, 62, 83, 138, 5, 526 >,
 	// order 44
 	< 528, 44, 1, 0, 81, 192, 8, -1 >,
 	< 529, 44, 7, 0, 52, 183, 3, 528 >,
 	< 530, 44, 9, 81, 53, 163, 9, 529 >,
 	< 531, 44, 8, 76, 65, 184, 1, 530 >,
 	< 532, 44, 7, 66, 0, 139, 0, 531 >,
 	< 533, 44, 2, 88, 0, 143, 4, 532 >,
 	< 534, 44, 7, 0, 88, 105, 7, 533 >,
 	< 535, 44, 1, 66, 33, 182, 2, 534 >,
 	< 536, 44, 5, 73, 69, 186, 6, 535 >,
 	< 537, 44, 4, 0, 44, 193, 5, 536 >,
 	< 538, 44, 9, 0, 78, 121, 8, 537 >,
 	< 539, 44, 7, 0, 0, 172, 3, 538 >,
 	// order 45
 	< 540, 45, 5, 56, 63, 182, 9, -1 >,
 	< 541, 45, 6, 82, 39, 184, 1, 540 >,
 	< 542, 45, 5, 0, 0, 135, 0, 541 >,
 	< 543, 45, 9, 0, 53, 148, 4, 542 >,
 	< 544, 45, 8, 0, 0, 169, 7, 543 >,
 	< 545, 45, 4, 34, 0, 181, 2, 544 >,
 	< 546, 45, 3, 0, 53, 132, 6, 545 >,
 	< 547, 45, 9, 0, 62, 175, 5, 546 >,
 	< 548, 45, 4, 54, 0, 106, 8, 547 >,
 	< 549, 45, 1, 0, 0, 153, 3, 548 >,
 	< 550, 45, 4, 0, 0, 145, 9, 549 >,
 	< 551, 45, 7, 0, 52, 114, 1, 550 >,
 	// order 46
 	< 552, 46, 3, 0, 0, 144, 0, -1 >,
 	< 553, 46, 3, 45, 89, 111, 4, 552 >,
 	< 554, 46, 7, 0, 0, 124, 7, 553 >,
 	< 555, 46, 9, 0, 81, 138, 2, 554 >,
 	< 556, 46, 9, 0, 96, 137, 6, 555 >,
 	< 557, 46, 6, 0, 0, 188, 5, 556 >,
 	< 558, 46, 8, 0, 0, 157, 8, 557 >,
 	< 559, 46, 5, 0, 0, 135, 3, 558 >,
 	< 560, 46, 6, 68, 0, 122, 9, 559 >,
 	< 561, 46, 2, 0, 0, 152, 1, 560 >,
 	< 562, 46, 2, 0, 0, 160, 0, 561 >,
 	< 563, 46, 4, 65, 0, 149, 4, 562 >,
 	// order 47
 	< 564, 47, 10, 42, 93, 115, 7, -1 >,
 	< 565, 47, 5, 0, 0, 152, 2, 564 >,
 	< 566, 47, 1, 0, 38, 187, 6, 565 >,
 	< 567, 47, 5, 35, 0, 197, 5, 566 >,
 	< 568, 47, 7, 54, 90, 143, 8, 567 >,
 	< 569, 47, 9, 0, 0, 143, 3, 568 >,
 	< 570, 47, 7, 44, 34, 171, 9, 569 >,
 	< 571, 47, 2, 30, 0, 199, 1, 570 >,
 	< 572, 47, 9, 0, 51, 140, 0, 571 >,
 	< 573, 47, 2, 0, 0, 112, 4, 572 >,
 	< 574, 47, 8, 53, 0, 187, 7, 573 >,
 	< 575, 47, 10, 0, 100, 146, 2, 574 >,
 	// order 48
 	< 576, 48, 3, 0, 0, 168, 6, -1 >,
 	< 577, 48, 9, 0, 96, 105, 5, 576 >,
 	< 578, 48, 2, 0, 34, 179, 8, 577 >,
 	< 579, 48, 10, 95, 51, 145, 3, 578 >,
 	< 580, 48, 3, 43, 0, 165, 9, 579 >,
 	< 581, 48, 1, 0, 39, 106, 1, 580 >,
 	< 582, 48, 4, 78, 38, 196, 0, 581 >,
 	< 583, 48, 9, 0, 93, 148, 4, 582 >,
 	< 584, 48, 3, 33, 93, 155, 7, 583 >,
 	< 585, 48, 6, 0, 0, 107, 2, 584 >,
 	< 586, 48, 8, 0, 44, 144, 6, 585 >,
 	< 587, 48, 9, 31, 40, 113, 5, 586 >,
 	// order 49
 	< 588, 49, 9, 85, 45, 151, 8, -1 >,
 	< 589, 49, 7, 0, 67, 176, 3, 588 >,
 	< 590, 49, 5, 32, 40, 133, 9, 589 >,
 	< 591, 49, 8, 0, 55, 200, 1, 590 >,
 	< 592, 49, 10, 55, 0, 135, 0, 591 >,
 	< 593, 49, 7, 0, 56, 200, 4, 592 >,
 	< 594, 49, 8, 0, 0, 101, 7, 593 >,
 	< 595, 49, 3, 0, 32, 187, 2, 594 >,
 	< 596, 49, 4, 0, 97, 186, 6, 595 >,
 	< 597, 49, 6, 0, 79, 157, 5, 596 >,
 	< 598, 49, 3, 0, 0, 177, 8, 597 >,
 	< 599, 49, 9, 39, 0, 107, 3, 598 >
 };
